xclingo version 2.0b16
Reading from /bin/text2ALM/Master/LogicPrograms/countingA/countingANarrative2.tp.lp /usr/bin/text2ALM/query2.lp trace-rule.lp
*** ERROR: (xclingo, explainer program) too many messages.
